\* sidsproblem *\
Minimize
OBJ: x__L_0_
Subject To
_C1: 10 x__5_0_10_ + 11 x__5_0_11_ + 12 x__5_0_12_ + 13 x__5_0_13_
 + 14 x__5_0_14_ + 15 x__5_0_15_ + 16 x__5_0_16_ + 17 x__5_0_17_
 + 18 x__5_0_18_ + 19 x__5_0_19_ + x__5_0_1_ + 20 x__5_0_20_ + 21 x__5_0_21_
 + 22 x__5_0_22_ + 23 x__5_0_23_ + 24 x__5_0_24_ + 25 x__5_0_25_
 + 26 x__5_0_26_ + 27 x__5_0_27_ + 28 x__5_0_28_ + 29 x__5_0_29_ + 2 x__5_0_2_
 + 30 x__5_0_30_ + 31 x__5_0_31_ + 32 x__5_0_32_ + 33 x__5_0_33_
 + 34 x__5_0_34_ + 35 x__5_0_35_ + 36 x__5_0_36_ + 37 x__5_0_37_
 + 38 x__5_0_38_ + 39 x__5_0_39_ + 3 x__5_0_3_ + 40 x__5_0_40_ + 4 x__5_0_4_
 + 5 x__5_0_5_ + 6 x__5_0_6_ + 7 x__5_0_7_ + 8 x__5_0_8_ + 9 x__5_0_9_
 - 252 x__E_5_0_ = 0
_C10: x__9_0_0_ + x__9_0_10_ + x__9_0_11_ + x__9_0_12_ + x__9_0_13_
 + x__9_0_14_ + x__9_0_15_ + x__9_0_16_ + x__9_0_17_ + x__9_0_18_ + x__9_0_19_
 + x__9_0_1_ + x__9_0_20_ + x__9_0_21_ + x__9_0_22_ + x__9_0_23_ + x__9_0_24_
 + x__9_0_25_ + x__9_0_26_ + x__9_0_27_ + x__9_0_28_ + x__9_0_29_ + x__9_0_2_
 + x__9_0_30_ + x__9_0_31_ + x__9_0_32_ + x__9_0_33_ + x__9_0_34_ + x__9_0_35_
 + x__9_0_36_ + x__9_0_37_ + x__9_0_38_ + x__9_0_39_ + x__9_0_3_ + x__9_0_40_
 + x__9_0_4_ + x__9_0_5_ + x__9_0_6_ + x__9_0_7_ + x__9_0_8_ + x__9_0_9_
 = 8.50705917302e+38
_C11: 10 x__10_0_10_ + 11 x__10_0_11_ + 12 x__10_0_12_ + 13 x__10_0_13_
 + 14 x__10_0_14_ + 15 x__10_0_15_ + 16 x__10_0_16_ + 17 x__10_0_17_
 + 18 x__10_0_18_ + 19 x__10_0_19_ + x__10_0_1_ + 20 x__10_0_20_
 + 21 x__10_0_21_ + 22 x__10_0_22_ + 23 x__10_0_23_ + 24 x__10_0_24_
 + 25 x__10_0_25_ + 26 x__10_0_26_ + 27 x__10_0_27_ + 28 x__10_0_28_
 + 29 x__10_0_29_ + 2 x__10_0_2_ + 30 x__10_0_30_ + 31 x__10_0_31_
 + 32 x__10_0_32_ + 33 x__10_0_33_ + 34 x__10_0_34_ + 35 x__10_0_35_
 + 36 x__10_0_36_ + 37 x__10_0_37_ + 38 x__10_0_38_ + 39 x__10_0_39_
 + 3 x__10_0_3_ + 40 x__10_0_40_ + 4 x__10_0_4_ + 5 x__10_0_5_ + 6 x__10_0_6_
 + 7 x__10_0_7_ + 8 x__10_0_8_ + 9 x__10_0_9_ - 7.23700557733e+75 x__E_10_0_
 = 0
_C12: x__10_0_0_ + x__10_0_10_ + x__10_0_11_ + x__10_0_12_ + x__10_0_13_
 + x__10_0_14_ + x__10_0_15_ + x__10_0_16_ + x__10_0_17_ + x__10_0_18_
 + x__10_0_19_ + x__10_0_1_ + x__10_0_20_ + x__10_0_21_ + x__10_0_22_
 + x__10_0_23_ + x__10_0_24_ + x__10_0_25_ + x__10_0_26_ + x__10_0_27_
 + x__10_0_28_ + x__10_0_29_ + x__10_0_2_ + x__10_0_30_ + x__10_0_31_
 + x__10_0_32_ + x__10_0_33_ + x__10_0_34_ + x__10_0_35_ + x__10_0_36_
 + x__10_0_37_ + x__10_0_38_ + x__10_0_39_ + x__10_0_3_ + x__10_0_40_
 + x__10_0_4_ + x__10_0_5_ + x__10_0_6_ + x__10_0_7_ + x__10_0_8_ + x__10_0_9_
 = 7.23700557733e+75
_C13: 252 x__E_5_0_ - 252 x__V_5_ = 0
_C14: 11970 x__E_6_0_ - 11970 x__V_6_ = 0
_C15: 251607720 x__E_7_0_ - 251607720 x__V_7_ = 0
_C16: 3.24259173095e+18 x__E_8_0_ - 3.24259173095e+18 x__V_8_ = 0
_C17: 8.50705917302e+38 x__E_9_0_ - 8.50705917302e+38 x__V_9_ = 0
_C18: 7.23700557733e+75 x__E_10_0_ - 7.23700557733e+75 x__V_10_ = 0
_C19: 7.23700557733e+75 x__E_10_0_ + 252 x__E_5_0_ + 11970 x__E_6_0_
 + 251607720 x__E_7_0_ + 3.24259173095e+18 x__E_8_0_
 + 8.50705917302e+38 x__E_9_0_ - 7.23700557733e+75 x__L_0_ = 0
_C2: x__5_0_0_ + x__5_0_10_ + x__5_0_11_ + x__5_0_12_ + x__5_0_13_
 + x__5_0_14_ + x__5_0_15_ + x__5_0_16_ + x__5_0_17_ + x__5_0_18_ + x__5_0_19_
 + x__5_0_1_ + x__5_0_20_ + x__5_0_21_ + x__5_0_22_ + x__5_0_23_ + x__5_0_24_
 + x__5_0_25_ + x__5_0_26_ + x__5_0_27_ + x__5_0_28_ + x__5_0_29_ + x__5_0_2_
 + x__5_0_30_ + x__5_0_31_ + x__5_0_32_ + x__5_0_33_ + x__5_0_34_ + x__5_0_35_
 + x__5_0_36_ + x__5_0_37_ + x__5_0_38_ + x__5_0_39_ + x__5_0_3_ + x__5_0_40_
 + x__5_0_4_ + x__5_0_5_ + x__5_0_6_ + x__5_0_7_ + x__5_0_8_ + x__5_0_9_ = 252
_C20: x__10_0_0_ + x__5_0_0_ + x__6_0_0_ + x__7_0_0_ + x__8_0_0_ + x__9_0_0_
 <= 0
_C21: x__10_0_1_ + x__5_0_1_ + x__6_0_1_ + x__7_0_1_ + x__8_0_1_ + x__9_0_1_
 <= 1
_C22: x__10_0_2_ + x__5_0_2_ + x__6_0_2_ + x__7_0_2_ + x__8_0_2_ + x__9_0_2_
 <= 1081
_C23: x__10_0_3_ + x__5_0_3_ + x__6_0_3_ + x__7_0_3_ + x__8_0_3_ + x__9_0_3_
 <= 1219368
_C24: x__10_0_4_ + x__5_0_4_ + x__6_0_4_ + x__7_0_4_ + x__8_0_4_ + x__9_0_4_
 <= 1433976768
_C25: x__10_0_5_ + x__5_0_5_ + x__6_0_5_ + x__7_0_5_ + x__8_0_5_ + x__9_0_5_
 <= 1.7566215408e+12
_C26: x__10_0_6_ + x__5_0_6_ + x__6_0_6_ + x__7_0_6_ + x__8_0_6_ + x__9_0_6_
 <= 2.23969246452e+15
_C27: x__10_0_7_ + x__5_0_7_ + x__6_0_7_ + x__7_0_7_ + x__8_0_7_ + x__9_0_7_
 <= 2.96983220795e+18
_C28: x__10_0_8_ + x__5_0_8_ + x__6_0_8_ + x__7_0_8_ + x__8_0_8_ + x__9_0_8_
 <= 4.09242878256e+21
_C29: x__10_0_9_ + x__5_0_9_ + x__6_0_9_ + x__7_0_9_ + x__8_0_9_ + x__9_0_9_
 <= 5.85626558784e+24
_C3: 10 x__6_0_10_ + 11 x__6_0_11_ + 12 x__6_0_12_ + 13 x__6_0_13_
 + 14 x__6_0_14_ + 15 x__6_0_15_ + 16 x__6_0_16_ + 17 x__6_0_17_
 + 18 x__6_0_18_ + 19 x__6_0_19_ + x__6_0_1_ + 20 x__6_0_20_ + 21 x__6_0_21_
 + 22 x__6_0_22_ + 23 x__6_0_23_ + 24 x__6_0_24_ + 25 x__6_0_25_
 + 26 x__6_0_26_ + 27 x__6_0_27_ + 28 x__6_0_28_ + 29 x__6_0_29_ + 2 x__6_0_2_
 + 30 x__6_0_30_ + 31 x__6_0_31_ + 32 x__6_0_32_ + 33 x__6_0_33_
 + 34 x__6_0_34_ + 35 x__6_0_35_ + 36 x__6_0_36_ + 37 x__6_0_37_
 + 38 x__6_0_38_ + 39 x__6_0_39_ + 3 x__6_0_3_ + 40 x__6_0_40_ + 4 x__6_0_4_
 + 5 x__6_0_5_ + 6 x__6_0_6_ + 7 x__6_0_7_ + 8 x__6_0_8_ + 9 x__6_0_9_
 - 11970 x__E_6_0_ = 0
_C30: x__10_0_10_ + x__5_0_10_ + x__6_0_10_ + x__7_0_10_ + x__8_0_10_
 + x__9_0_10_ <= 8.69655439795e+27
_C31: x__10_0_11_ + x__5_0_11_ + x__6_0_11_ + x__7_0_11_ + x__8_0_11_
 + x__9_0_11_ <= 1.33926937728e+31
_C32: x__10_0_12_ + x__5_0_12_ + x__6_0_12_ + x__7_0_12_ + x__8_0_12_
 + x__9_0_12_ <= 2.13747392615e+34
_C33: x__10_0_13_ + x__5_0_13_ + x__6_0_13_ + x__7_0_13_ + x__8_0_13_
 + x__9_0_13_ <= 3.53324439992e+37
_C34: x__10_0_14_ + x__5_0_14_ + x__6_0_14_ + x__7_0_14_ + x__8_0_14_
 + x__9_0_14_ <= 6.04538116826e+40
_C35: x__10_0_15_ + x__5_0_15_ + x__6_0_15_ + x__7_0_15_ + x__8_0_15_
 + x__9_0_15_ <= 1.07003246678e+44
_C36: x__10_0_16_ + x__5_0_16_ + x__6_0_16_ + x__7_0_16_ + x__8_0_16_
 + x__9_0_16_ <= 1.95815941421e+47
_C37: x__10_0_17_ + x__5_0_17_ + x__6_0_17_ + x__7_0_17_ + x__8_0_17_
 + x__9_0_17_ <= 3.70287945227e+50
_C38: x__10_0_18_ + x__5_0_18_ + x__6_0_18_ + x__7_0_18_ + x__8_0_18_
 + x__9_0_18_ <= 7.23172357029e+53
_C39: x__10_0_19_ + x__5_0_19_ + x__6_0_19_ + x__7_0_19_ + x__8_0_19_
 + x__9_0_19_ <= 1.45791547177e+57
_C4: x__6_0_0_ + x__6_0_10_ + x__6_0_11_ + x__6_0_12_ + x__6_0_13_
 + x__6_0_14_ + x__6_0_15_ + x__6_0_16_ + x__6_0_17_ + x__6_0_18_ + x__6_0_19_
 + x__6_0_1_ + x__6_0_20_ + x__6_0_21_ + x__6_0_22_ + x__6_0_23_ + x__6_0_24_
 + x__6_0_25_ + x__6_0_26_ + x__6_0_27_ + x__6_0_28_ + x__6_0_29_ + x__6_0_2_
 + x__6_0_30_ + x__6_0_31_ + x__6_0_32_ + x__6_0_33_ + x__6_0_34_ + x__6_0_35_
 + x__6_0_36_ + x__6_0_37_ + x__6_0_38_ + x__6_0_39_ + x__6_0_3_ + x__6_0_40_
 + x__6_0_4_ + x__6_0_5_ + x__6_0_6_ + x__6_0_7_ + x__6_0_8_ + x__6_0_9_
 = 11970
_C40: x__10_0_20_ + x__5_0_20_ + x__6_0_20_ + x__7_0_20_ + x__8_0_20_
 + x__9_0_20_ <= 3.03246418128e+60
_C41: x__10_0_21_ + x__5_0_21_ + x__6_0_21_ + x__7_0_21_ + x__8_0_21_
 + x__9_0_21_ <= 6.50463566885e+63
_C42: x__10_0_22_ + x__5_0_22_ + x__6_0_22_ + x__7_0_22_ + x__8_0_22_
 + x__9_0_22_ <= 1.43817494638e+67
_C43: x__10_0_23_ + x__5_0_23_ + x__6_0_23_ + x__7_0_23_ + x__8_0_23_
 + x__9_0_23_ <= 3.27616252786e+70
_C44: x__10_0_24_ + x__5_0_24_ + x__6_0_24_ + x__7_0_24_ + x__8_0_24_
 + x__9_0_24_ <= 7.68587729036e+73
_C45: x__10_0_25_ + x__5_0_25_ + x__6_0_25_ + x__7_0_25_ + x__8_0_25_
 + x__9_0_25_ <= 1.85613936562e+77
_C46: x__10_0_26_ + x__5_0_26_ + x__6_0_26_ + x__7_0_26_ + x__8_0_26_
 + x__9_0_26_ <= 4.61250632357e+80
_C47: x__10_0_27_ + x__5_0_27_ + x__6_0_27_ + x__7_0_27_ + x__8_0_27_
 + x__9_0_27_ <= 1.1789566163e+84
_C48: x__10_0_28_ + x__5_0_28_ + x__6_0_28_ + x__7_0_28_ + x__8_0_28_
 + x__9_0_28_ <= 3.09829798765e+87
_C49: x__10_0_29_ + x__5_0_29_ + x__6_0_29_ + x__7_0_29_ + x__8_0_29_
 + x__9_0_29_ <= 8.36850286464e+90
_C5: 10 x__7_0_10_ + 11 x__7_0_11_ + 12 x__7_0_12_ + 13 x__7_0_13_
 + 14 x__7_0_14_ + 15 x__7_0_15_ + 16 x__7_0_16_ + 17 x__7_0_17_
 + 18 x__7_0_18_ + 19 x__7_0_19_ + x__7_0_1_ + 20 x__7_0_20_ + 21 x__7_0_21_
 + 22 x__7_0_22_ + 23 x__7_0_23_ + 24 x__7_0_24_ + 25 x__7_0_25_
 + 26 x__7_0_26_ + 27 x__7_0_27_ + 28 x__7_0_28_ + 29 x__7_0_29_ + 2 x__7_0_2_
 + 30 x__7_0_30_ + 31 x__7_0_31_ + 32 x__7_0_32_ + 33 x__7_0_33_
 + 34 x__7_0_34_ + 35 x__7_0_35_ + 36 x__7_0_36_ + 37 x__7_0_37_
 + 38 x__7_0_38_ + 39 x__7_0_39_ + 3 x__7_0_3_ + 40 x__7_0_40_ + 4 x__7_0_4_
 + 5 x__7_0_5_ + 6 x__7_0_6_ + 7 x__7_0_7_ + 8 x__7_0_8_ + 9 x__7_0_9_
 - 251607720 x__E_7_0_ = 0
_C50: x__10_0_30_ + x__5_0_30_ + x__6_0_30_ + x__7_0_30_ + x__8_0_30_
 + x__9_0_30_ <= 2.32225954494e+94
_C51: x__10_0_31_ + x__5_0_31_ + x__6_0_31_ + x__7_0_31_ + x__8_0_31_
 + x__9_0_31_ <= 6.61843970307e+97
_C52: x__10_0_32_ + x__5_0_32_ + x__6_0_32_ + x__7_0_32_ + x__8_0_32_
 + x__9_0_32_ <= 1.93655545712e+101
_C53: x__10_0_33_ + x__5_0_33_ + x__6_0_33_ + x__7_0_33_ + x__8_0_33_
 + x__9_0_33_ <= 5.81547603773e+104
_C54: x__10_0_34_ + x__5_0_34_ + x__6_0_34_ + x__7_0_34_ + x__8_0_34_
 + x__9_0_34_ <= 1.79174816722e+108
_C55: x__10_0_35_ + x__5_0_35_ + x__6_0_35_ + x__7_0_35_ + x__8_0_35_
 + x__9_0_35_ <= 5.66192420843e+111
_C56: x__10_0_36_ + x__5_0_36_ + x__6_0_36_ + x__7_0_36_ + x__8_0_36_
 + x__9_0_36_ <= 1.83446344353e+115
_C57: x__10_0_37_ + x__5_0_37_ + x__6_0_37_ + x__7_0_37_ + x__8_0_37_
 + x__9_0_37_ <= 6.09225309596e+118
_C58: x__10_0_38_ + x__5_0_38_ + x__6_0_38_ + x__7_0_38_ + x__8_0_38_
 + x__9_0_38_ <= 2.07319372856e+122
_C59: x__10_0_39_ + x__5_0_39_ + x__6_0_39_ + x__7_0_39_ + x__8_0_39_
 + x__9_0_39_ <= 7.22715333775e+125
_C6: x__7_0_0_ + x__7_0_10_ + x__7_0_11_ + x__7_0_12_ + x__7_0_13_
 + x__7_0_14_ + x__7_0_15_ + x__7_0_16_ + x__7_0_17_ + x__7_0_18_ + x__7_0_19_
 + x__7_0_1_ + x__7_0_20_ + x__7_0_21_ + x__7_0_22_ + x__7_0_23_ + x__7_0_24_
 + x__7_0_25_ + x__7_0_26_ + x__7_0_27_ + x__7_0_28_ + x__7_0_29_ + x__7_0_2_
 + x__7_0_30_ + x__7_0_31_ + x__7_0_32_ + x__7_0_33_ + x__7_0_34_ + x__7_0_35_
 + x__7_0_36_ + x__7_0_37_ + x__7_0_38_ + x__7_0_39_ + x__7_0_3_ + x__7_0_40_
 + x__7_0_4_ + x__7_0_5_ + x__7_0_6_ + x__7_0_7_ + x__7_0_8_ + x__7_0_9_
 = 251607720
_C60: x__10_0_40_ + x__5_0_40_ + x__6_0_40_ + x__7_0_40_ + x__8_0_40_
 + x__9_0_40_ <= 2.58009374158e+129
_C61: - x__V_5_ + x__V_6_ >= 1
_C62: - x__V_6_ + x__V_7_ >= 1
_C63: - x__V_7_ + x__V_8_ >= 1
_C64: - x__V_8_ + x__V_9_ >= 1
_C65: x__V_10_ - x__V_9_ >= 1
_C7: 10 x__8_0_10_ + 11 x__8_0_11_ + 12 x__8_0_12_ + 13 x__8_0_13_
 + 14 x__8_0_14_ + 15 x__8_0_15_ + 16 x__8_0_16_ + 17 x__8_0_17_
 + 18 x__8_0_18_ + 19 x__8_0_19_ + x__8_0_1_ + 20 x__8_0_20_ + 21 x__8_0_21_
 + 22 x__8_0_22_ + 23 x__8_0_23_ + 24 x__8_0_24_ + 25 x__8_0_25_
 + 26 x__8_0_26_ + 27 x__8_0_27_ + 28 x__8_0_28_ + 29 x__8_0_29_ + 2 x__8_0_2_
 + 30 x__8_0_30_ + 31 x__8_0_31_ + 32 x__8_0_32_ + 33 x__8_0_33_
 + 34 x__8_0_34_ + 35 x__8_0_35_ + 36 x__8_0_36_ + 37 x__8_0_37_
 + 38 x__8_0_38_ + 39 x__8_0_39_ + 3 x__8_0_3_ + 40 x__8_0_40_ + 4 x__8_0_4_
 + 5 x__8_0_5_ + 6 x__8_0_6_ + 7 x__8_0_7_ + 8 x__8_0_8_ + 9 x__8_0_9_
 - 3.24259173095e+18 x__E_8_0_ = 0
_C8: x__8_0_0_ + x__8_0_10_ + x__8_0_11_ + x__8_0_12_ + x__8_0_13_
 + x__8_0_14_ + x__8_0_15_ + x__8_0_16_ + x__8_0_17_ + x__8_0_18_ + x__8_0_19_
 + x__8_0_1_ + x__8_0_20_ + x__8_0_21_ + x__8_0_22_ + x__8_0_23_ + x__8_0_24_
 + x__8_0_25_ + x__8_0_26_ + x__8_0_27_ + x__8_0_28_ + x__8_0_29_ + x__8_0_2_
 + x__8_0_30_ + x__8_0_31_ + x__8_0_32_ + x__8_0_33_ + x__8_0_34_ + x__8_0_35_
 + x__8_0_36_ + x__8_0_37_ + x__8_0_38_ + x__8_0_39_ + x__8_0_3_ + x__8_0_40_
 + x__8_0_4_ + x__8_0_5_ + x__8_0_6_ + x__8_0_7_ + x__8_0_8_ + x__8_0_9_
 = 3.24259173095e+18
_C9: 10 x__9_0_10_ + 11 x__9_0_11_ + 12 x__9_0_12_ + 13 x__9_0_13_
 + 14 x__9_0_14_ + 15 x__9_0_15_ + 16 x__9_0_16_ + 17 x__9_0_17_
 + 18 x__9_0_18_ + 19 x__9_0_19_ + x__9_0_1_ + 20 x__9_0_20_ + 21 x__9_0_21_
 + 22 x__9_0_22_ + 23 x__9_0_23_ + 24 x__9_0_24_ + 25 x__9_0_25_
 + 26 x__9_0_26_ + 27 x__9_0_27_ + 28 x__9_0_28_ + 29 x__9_0_29_ + 2 x__9_0_2_
 + 30 x__9_0_30_ + 31 x__9_0_31_ + 32 x__9_0_32_ + 33 x__9_0_33_
 + 34 x__9_0_34_ + 35 x__9_0_35_ + 36 x__9_0_36_ + 37 x__9_0_37_
 + 38 x__9_0_38_ + 39 x__9_0_39_ + 3 x__9_0_3_ + 40 x__9_0_40_ + 4 x__9_0_4_
 + 5 x__9_0_5_ + 6 x__9_0_6_ + 7 x__9_0_7_ + 8 x__9_0_8_ + 9 x__9_0_9_
 - 8.50705917302e+38 x__E_9_0_ = 0
End
